c Random Network
p max    10      20
n         1  s
n        10  t
a       8       1      13
a       1      10      13
a       3       8      31
a       4       5       8
a       7       6      17
a       7       8      36
a       7       1      30
a       2       1      18
a       3       4       6
a       1       7      48
a       8       4       8
a       6       7       3
a       7       2      33
a       1       2      43
a       1       8      38
a       1       9       2
a       8       6      25
a       4       1       4
a       6       1      31
a       2       8      40
